c File: flat50_3_0.col
c
c SOURCE: Joseph Culberson (joe@cs.ualberta.ca)
c DESCRIPTION: Quasi-random coloring problem
c              generated with flatness = 0
c                             probability = 0.139
c                             known coloring = 3
c                             random seed = 1096
c              Creation Date:  Tue Jun  9 12:01:02 1998
c Maximum degree = 8 Minimum degree = 1
c p edge 50 115
c cnf created by edge2cnf
p cnf 150 545
-1 -2 0
-1 -3 0
-2 -3 0
1 2 3 0
-4 -5 0
-4 -6 0
-5 -6 0
4 5 6 0
-7 -8 0
-7 -9 0
-8 -9 0
7 8 9 0
-10 -11 0
-10 -12 0
-11 -12 0
10 11 12 0
-13 -14 0
-13 -15 0
-14 -15 0
13 14 15 0
-16 -17 0
-16 -18 0
-17 -18 0
16 17 18 0
-19 -20 0
-19 -21 0
-20 -21 0
19 20 21 0
-22 -23 0
-22 -24 0
-23 -24 0
22 23 24 0
-25 -26 0
-25 -27 0
-26 -27 0
25 26 27 0
-28 -29 0
-28 -30 0
-29 -30 0
28 29 30 0
-31 -32 0
-31 -33 0
-32 -33 0
31 32 33 0
-34 -35 0
-34 -36 0
-35 -36 0
34 35 36 0
-37 -38 0
-37 -39 0
-38 -39 0
37 38 39 0
-40 -41 0
-40 -42 0
-41 -42 0
40 41 42 0
-43 -44 0
-43 -45 0
-44 -45 0
43 44 45 0
-46 -47 0
-46 -48 0
-47 -48 0
46 47 48 0
-49 -50 0
-49 -51 0
-50 -51 0
49 50 51 0
-52 -53 0
-52 -54 0
-53 -54 0
52 53 54 0
-55 -56 0
-55 -57 0
-56 -57 0
55 56 57 0
-58 -59 0
-58 -60 0
-59 -60 0
58 59 60 0
-61 -62 0
-61 -63 0
-62 -63 0
61 62 63 0
-64 -65 0
-64 -66 0
-65 -66 0
64 65 66 0
-67 -68 0
-67 -69 0
-68 -69 0
67 68 69 0
-70 -71 0
-70 -72 0
-71 -72 0
70 71 72 0
-73 -74 0
-73 -75 0
-74 -75 0
73 74 75 0
-76 -77 0
-76 -78 0
-77 -78 0
76 77 78 0
-79 -80 0
-79 -81 0
-80 -81 0
79 80 81 0
-82 -83 0
-82 -84 0
-83 -84 0
82 83 84 0
-85 -86 0
-85 -87 0
-86 -87 0
85 86 87 0
-88 -89 0
-88 -90 0
-89 -90 0
88 89 90 0
-91 -92 0
-91 -93 0
-92 -93 0
91 92 93 0
-94 -95 0
-94 -96 0
-95 -96 0
94 95 96 0
-97 -98 0
-97 -99 0
-98 -99 0
97 98 99 0
-100 -101 0
-100 -102 0
-101 -102 0
100 101 102 0
-103 -104 0
-103 -105 0
-104 -105 0
103 104 105 0
-106 -107 0
-106 -108 0
-107 -108 0
106 107 108 0
-109 -110 0
-109 -111 0
-110 -111 0
109 110 111 0
-112 -113 0
-112 -114 0
-113 -114 0
112 113 114 0
-115 -116 0
-115 -117 0
-116 -117 0
115 116 117 0
-118 -119 0
-118 -120 0
-119 -120 0
118 119 120 0
-121 -122 0
-121 -123 0
-122 -123 0
121 122 123 0
-124 -125 0
-124 -126 0
-125 -126 0
124 125 126 0
-127 -128 0
-127 -129 0
-128 -129 0
127 128 129 0
-130 -131 0
-130 -132 0
-131 -132 0
130 131 132 0
-133 -134 0
-133 -135 0
-134 -135 0
133 134 135 0
-136 -137 0
-136 -138 0
-137 -138 0
136 137 138 0
-139 -140 0
-139 -141 0
-140 -141 0
139 140 141 0
-142 -143 0
-142 -144 0
-143 -144 0
142 143 144 0
-145 -146 0
-145 -147 0
-146 -147 0
145 146 147 0
-148 -149 0
-148 -150 0
-149 -150 0
148 149 150 0
-94 -1 0
-95 -2 0
-96 -3 0
-103 -1 0
-104 -2 0
-105 -3 0
-133 -1 0
-134 -2 0
-135 -3 0
-139 -1 0
-140 -2 0
-141 -3 0
-82 -4 0
-83 -5 0
-84 -6 0
-112 -4 0
-113 -5 0
-114 -6 0
-55 -7 0
-56 -8 0
-57 -9 0
-58 -7 0
-59 -8 0
-60 -9 0
-82 -7 0
-83 -8 0
-84 -9 0
-88 -7 0
-89 -8 0
-90 -9 0
-106 -7 0
-107 -8 0
-108 -9 0
-124 -7 0
-125 -8 0
-126 -9 0
-127 -7 0
-128 -8 0
-129 -9 0
-64 -10 0
-65 -11 0
-66 -12 0
-79 -10 0
-80 -11 0
-81 -12 0
-85 -10 0
-86 -11 0
-87 -12 0
-100 -10 0
-101 -11 0
-102 -12 0
-112 -10 0
-113 -11 0
-114 -12 0
-121 -10 0
-122 -11 0
-123 -12 0
-136 -10 0
-137 -11 0
-138 -12 0
-52 -13 0
-53 -14 0
-54 -15 0
-139 -13 0
-140 -14 0
-141 -15 0
-52 -16 0
-53 -17 0
-54 -18 0
-70 -16 0
-71 -17 0
-72 -18 0
-76 -16 0
-77 -17 0
-78 -18 0
-94 -16 0
-95 -17 0
-96 -18 0
-103 -16 0
-104 -17 0
-105 -18 0
-130 -16 0
-131 -17 0
-132 -18 0
-148 -16 0
-149 -17 0
-150 -18 0
-82 -19 0
-83 -20 0
-84 -21 0
-91 -19 0
-92 -20 0
-93 -21 0
-103 -19 0
-104 -20 0
-105 -21 0
-124 -19 0
-125 -20 0
-126 -21 0
-145 -19 0
-146 -20 0
-147 -21 0
-64 -22 0
-65 -23 0
-66 -24 0
-82 -22 0
-83 -23 0
-84 -24 0
-88 -22 0
-89 -23 0
-90 -24 0
-112 -22 0
-113 -23 0
-114 -24 0
-142 -22 0
-143 -23 0
-144 -24 0
-61 -25 0
-62 -26 0
-63 -27 0
-79 -25 0
-80 -26 0
-81 -27 0
-85 -25 0
-86 -26 0
-87 -27 0
-100 -25 0
-101 -26 0
-102 -27 0
-103 -25 0
-104 -26 0
-105 -27 0
-112 -25 0
-113 -26 0
-114 -27 0
-127 -25 0
-128 -26 0
-129 -27 0
-145 -25 0
-146 -26 0
-147 -27 0
-64 -28 0
-65 -29 0
-66 -30 0
-67 -28 0
-68 -29 0
-69 -30 0
-79 -28 0
-80 -29 0
-81 -30 0
-97 -28 0
-98 -29 0
-99 -30 0
-127 -28 0
-128 -29 0
-129 -30 0
-52 -31 0
-53 -32 0
-54 -33 0
-100 -31 0
-101 -32 0
-102 -33 0
-136 -31 0
-137 -32 0
-138 -33 0
-142 -31 0
-143 -32 0
-144 -33 0
-67 -34 0
-68 -35 0
-69 -36 0
-79 -34 0
-80 -35 0
-81 -36 0
-136 -34 0
-137 -35 0
-138 -36 0
-145 -34 0
-146 -35 0
-147 -36 0
-130 -37 0
-131 -38 0
-132 -39 0
-76 -40 0
-77 -41 0
-78 -42 0
-136 -40 0
-137 -41 0
-138 -42 0
-70 -43 0
-71 -44 0
-72 -45 0
-91 -43 0
-92 -44 0
-93 -45 0
-94 -43 0
-95 -44 0
-96 -45 0
-124 -43 0
-125 -44 0
-126 -45 0
-133 -43 0
-134 -44 0
-135 -45 0
-64 -46 0
-65 -47 0
-66 -48 0
-67 -46 0
-68 -47 0
-69 -48 0
-124 -46 0
-125 -47 0
-126 -48 0
-133 -46 0
-134 -47 0
-135 -48 0
-52 -49 0
-53 -50 0
-54 -51 0
-58 -49 0
-59 -50 0
-60 -51 0
-115 -49 0
-116 -50 0
-117 -51 0
-127 -49 0
-128 -50 0
-129 -51 0
-142 -49 0
-143 -50 0
-144 -51 0
-136 -52 0
-137 -53 0
-138 -54 0
-127 -58 0
-128 -59 0
-129 -60 0
-139 -58 0
-140 -59 0
-141 -60 0
-148 -58 0
-149 -59 0
-150 -60 0
-124 -61 0
-125 -62 0
-126 -63 0
-133 -61 0
-134 -62 0
-135 -63 0
-112 -64 0
-113 -65 0
-114 -66 0
-139 -64 0
-140 -65 0
-141 -66 0
-148 -64 0
-149 -65 0
-150 -66 0
-145 -67 0
-146 -68 0
-147 -69 0
-133 -70 0
-134 -71 0
-135 -72 0
-148 -70 0
-149 -71 0
-150 -72 0
-112 -73 0
-113 -74 0
-114 -75 0
-115 -73 0
-116 -74 0
-117 -75 0
-127 -73 0
-128 -74 0
-129 -75 0
-139 -73 0
-140 -74 0
-141 -75 0
-127 -76 0
-128 -77 0
-129 -78 0
-130 -76 0
-131 -77 0
-132 -78 0
-148 -76 0
-149 -77 0
-150 -78 0
-118 -79 0
-119 -80 0
-120 -81 0
-142 -82 0
-143 -83 0
-144 -84 0
-145 -82 0
-146 -83 0
-147 -84 0
-106 -85 0
-107 -86 0
-108 -87 0
-142 -85 0
-143 -86 0
-144 -87 0
-145 -85 0
-146 -86 0
-147 -87 0
-118 -88 0
-119 -89 0
-120 -90 0
-127 -88 0
-128 -89 0
-129 -90 0
-130 -88 0
-131 -89 0
-132 -90 0
-136 -88 0
-137 -89 0
-138 -90 0
-109 -91 0
-110 -92 0
-111 -93 0
-118 -94 0
-119 -95 0
-120 -96 0
-121 -94 0
-122 -95 0
-123 -96 0
-133 -94 0
-134 -95 0
-135 -96 0
-145 -94 0
-146 -95 0
-147 -96 0
-103 -97 0
-104 -98 0
-105 -99 0
-118 -97 0
-119 -98 0
-120 -99 0
-109 -100 0
-110 -101 0
-111 -102 0
-115 -100 0
-116 -101 0
-117 -102 0
